\ENCODING=ISO-8859-1
\Problem name: knapsack_problem_opl

Minimize
 obj: - 7 x(0) - 9 x(1) - 2 x(2) - 15 x(3) + id51
Subject To
 id52: 3 x(0) + 4 x(1) + x(2) + 7 x(3) <= 10
Bounds
      x(0) >= 0
      x(1) >= 0
      x(2) >= 0
      x(3) >= 0
      id51 = 0
Generals
 x(0)  x(1)  x(2)  x(3) 
End
